problems/csplib-prob056/params/sonet-60-30-30-2281.param
language Essence 1.3
letting nnodes be 60
letting nrings be 30
letting capacity be 30
letting demand be 
{{1, 2},
{1, 3},
{1, 5},
{1, 6},
{1, 9},
{1, 10},
{1, 12},
{1, 15},
{1, 17},
{1, 20},
{1, 21},
{1, 23},
{1, 26},
{1, 27},
{1, 29},
{1, 30},
{1, 32},
{1, 34},
{1, 36},
{1, 37},
{1, 38},
{1, 39},
{1, 41},
{1, 42},
{1, 43},
{1, 44},
{1, 45},
{1, 46},
{1, 47},
{1, 48},
{1, 49},
{1, 50},
{1, 53},
{1, 54},
{1, 55},
{1, 56},
{1, 57},
{1, 59},
{1, 60},
{2, 3},
{2, 4},
{2, 5},
{2, 7},
{2, 9},
{2, 13},
{2, 15},
{2, 17},
{2, 18},
{2, 20},
{2, 22},
{2, 23},
{2, 26},
{2, 27},
{2, 32},
{2, 33},
{2, 34},
{2, 35},
{2, 36},
{2, 39},
{2, 40},
{2, 41},
{2, 42},
{2, 44},
{2, 46},
{2, 47},
{2, 48},
{2, 50},
{2, 51},
{2, 52},
{2, 58},
{3, 4},
{3, 8},
{3, 9},
{3, 10},
{3, 11},
{3, 12},
{3, 13},
{3, 14},
{3, 15},
{3, 16},
{3, 17},
{3, 20},
{3, 22},
{3, 23},
{3, 24},
{3, 25},
{3, 26},
{3, 27},
{3, 30},
{3, 32},
{3, 37},
{3, 38},
{3, 46},
{3, 53},
{3, 55},
{3, 56},
{3, 57},
{3, 58},
{3, 59},
{4, 7},
{4, 9},
{4, 15},
{4, 17},
{4, 18},
{4, 20},
{4, 23},
{4, 24},
{4, 25},
{4, 27},
{4, 28},
{4, 29},
{4, 30},
{4, 31},
{4, 32},
{4, 33},
{4, 34},
{4, 35},
{4, 36},
{4, 40},
{4, 41},
{4, 42},
{4, 46},
{4, 47},
{4, 48},
{4, 49},
{4, 53},
{4, 54},
{4, 55},
{4, 56},
{4, 60},
{5, 6},
{5, 7},
{5, 8},
{5, 9},
{5, 10},
{5, 11},
{5, 12},
{5, 14},
{5, 17},
{5, 18},
{5, 19},
{5, 23},
{5, 25},
{5, 27},
{5, 30},
{5, 32},
{5, 41},
{5, 42},
{5, 43},
{5, 45},
{5, 46},
{5, 51},
{5, 52},
{5, 54},
{5, 55},
{5, 56},
{5, 57},
{5, 59},
{5, 60},
{6, 7},
{6, 9},
{6, 12},
{6, 13},
{6, 16},
{6, 17},
{6, 24},
{6, 26},
{6, 27},
{6, 28},
{6, 29},
{6, 30},
{6, 31},
{6, 34},
{6, 35},
{6, 36},
{6, 37},
{6, 39},
{6, 42},
{6, 45},
{6, 46},
{6, 47},
{6, 48},
{6, 49},
{6, 50},
{6, 52},
{6, 54},
{6, 55},
{6, 59},
{7, 9},
{7, 12},
{7, 20},
{7, 22},
{7, 23},
{7, 27},
{7, 28},
{7, 30},
{7, 31},
{7, 32},
{7, 35},
{7, 39},
{7, 46},
{7, 48},
{7, 49},
{7, 51},
{7, 53},
{7, 54},
{7, 55},
{7, 58},
{7, 60},
{8, 11},
{8, 12},
{8, 13},
{8, 16},
{8, 18},
{8, 23},
{8, 27},
{8, 28},
{8, 32},
{8, 34},
{8, 36},
{8, 40},
{8, 42},
{8, 43},
{8, 44},
{8, 50},
{8, 54},
{8, 56},
{8, 57},
{8, 59},
{9, 11},
{9, 13},
{9, 14},
{9, 20},
{9, 24},
{9, 26},
{9, 27},
{9, 29},
{9, 31},
{9, 32},
{9, 38},
{9, 41},
{9, 42},
{9, 44},
{9, 45},
{9, 47},
{9, 52},
{9, 56},
{9, 58},
{9, 59},
{10, 13},
{10, 15},
{10, 16},
{10, 19},
{10, 21},
{10, 22},
{10, 23},
{10, 27},
{10, 28},
{10, 33},
{10, 37},
{10, 38},
{10, 40},
{10, 41},
{10, 46},
{10, 48},
{10, 54},
{10, 56},
{10, 59},
{10, 60},
{11, 13},
{11, 14},
{11, 15},
{11, 16},
{11, 18},
{11, 20},
{11, 21},
{11, 23},
{11, 24},
{11, 27},
{11, 30},
{11, 31},
{11, 33},
{11, 35},
{11, 37},
{11, 38},
{11, 39},
{11, 41},
{11, 43},
{11, 44},
{11, 45},
{11, 51},
{11, 57},
{11, 59},
{11, 60},
{12, 15},
{12, 16},
{12, 18},
{12, 19},
{12, 20},
{12, 21},
{12, 22},
{12, 23},
{12, 25},
{12, 29},
{12, 30},
{12, 31},
{12, 32},
{12, 33},
{12, 37},
{12, 41},
{12, 43},
{12, 45},
{12, 46},
{12, 47},
{12, 50},
{12, 53},
{12, 56},
{12, 57},
{12, 58},
{12, 59},
{12, 60},
{13, 17},
{13, 19},
{13, 22},
{13, 23},
{13, 27},
{13, 29},
{13, 32},
{13, 33},
{13, 35},
{13, 36},
{13, 39},
{13, 40},
{13, 42},
{13, 43},
{13, 44},
{13, 46},
{13, 47},
{13, 50},
{13, 53},
{13, 57},
{13, 60},
{14, 16},
{14, 17},
{14, 18},
{14, 20},
{14, 22},
{14, 27},
{14, 28},
{14, 32},
{14, 33},
{14, 34},
{14, 35},
{14, 36},
{14, 37},
{14, 39},
{14, 42},
{14, 43},
{14, 44},
{14, 46},
{14, 48},
{14, 50},
{14, 55},
{14, 56},
{14, 57},
{15, 16},
{15, 19},
{15, 20},
{15, 21},
{15, 22},
{15, 23},
{15, 25},
{15, 26},
{15, 27},
{15, 28},
{15, 29},
{15, 33},
{15, 34},
{15, 35},
{15, 36},
{15, 39},
{15, 40},
{15, 41},
{15, 44},
{15, 46},
{15, 49},
{15, 50},
{15, 52},
{15, 53},
{15, 54},
{15, 55},
{15, 60},
{16, 17},
{16, 18},
{16, 19},
{16, 21},
{16, 23},
{16, 24},
{16, 25},
{16, 26},
{16, 30},
{16, 31},
{16, 32},
{16, 33},
{16, 37},
{16, 38},
{16, 39},
{16, 40},
{16, 41},
{16, 42},
{16, 44},
{16, 45},
{16, 46},
{16, 49},
{16, 51},
{16, 53},
{16, 55},
{16, 56},
{16, 57},
{16, 58},
{16, 59},
{17, 22},
{17, 23},
{17, 24},
{17, 25},
{17, 26},
{17, 27},
{17, 28},
{17, 30},
{17, 31},
{17, 32},
{17, 33},
{17, 37},
{17, 38},
{17, 40},
{17, 41},
{17, 43},
{17, 44},
{17, 45},
{17, 49},
{17, 55},
{17, 56},
{17, 57},
{17, 59},
{17, 60},
{18, 21},
{18, 22},
{18, 27},
{18, 29},
{18, 30},
{18, 34},
{18, 36},
{18, 37},
{18, 38},
{18, 40},
{18, 43},
{18, 44},
{18, 45},
{18, 48},
{18, 49},
{18, 54},
{18, 56},
{18, 58},
{18, 59},
{18, 60},
{19, 21},
{19, 22},
{19, 23},
{19, 24},
{19, 25},
{19, 26},
{19, 28},
{19, 29},
{19, 32},
{19, 35},
{19, 36},
{19, 42},
{19, 44},
{19, 45},
{19, 47},
{19, 49},
{19, 53},
{19, 54},
{19, 55},
{19, 59},
{20, 21},
{20, 24},
{20, 26},
{20, 27},
{20, 31},
{20, 32},
{20, 38},
{20, 39},
{20, 42},
{20, 44},
{20, 45},
{20, 47},
{20, 48},
{20, 56},
{20, 57},
{20, 58},
{20, 59},
{20, 60},
{21, 24},
{21, 28},
{21, 31},
{21, 35},
{21, 36},
{21, 38},
{21, 39},
{21, 45},
{21, 46},
{21, 47},
{21, 50},
{21, 54},
{21, 56},
{22, 23},
{22, 24},
{22, 25},
{22, 26},
{22, 27},
{22, 29},
{22, 30},
{22, 32},
{22, 33},
{22, 35},
{22, 36},
{22, 37},
{22, 38},
{22, 39},
{22, 40},
{22, 41},
{22, 43},
{22, 44},
{22, 45},
{22, 46},
{22, 47},
{22, 50},
{22, 52},
{22, 57},
{22, 58},
{22, 59},
{23, 24},
{23, 28},
{23, 29},
{23, 31},
{23, 32},
{23, 35},
{23, 38},
{23, 39},
{23, 40},
{23, 41},
{23, 42},
{23, 45},
{23, 46},
{23, 50},
{23, 53},
{23, 58},
{23, 59},
{24, 25},
{24, 30},
{24, 31},
{24, 34},
{24, 35},
{24, 36},
{24, 37},
{24, 38},
{24, 42},
{24, 44},
{24, 46},
{24, 47},
{24, 48},
{24, 49},
{24, 51},
{24, 52},
{25, 27},
{25, 29},
{25, 32},
{25, 33},
{25, 35},
{25, 38},
{25, 41},
{25, 42},
{25, 44},
{25, 46},
{25, 49},
{25, 52},
{25, 53},
{25, 57},
{25, 58},
{26, 30},
{26, 36},
{26, 41},
{26, 42},
{26, 43},
{26, 44},
{26, 45},
{26, 46},
{26, 47},
{26, 48},
{26, 56},
{26, 57},
{26, 59},
{26, 60},
{27, 28},
{27, 30},
{27, 32},
{27, 34},
{27, 38},
{27, 39},
{27, 40},
{27, 41},
{27, 45},
{27, 46},
{27, 47},
{27, 48},
{27, 49},
{27, 50},
{27, 52},
{27, 53},
{27, 54},
{27, 55},
{27, 57},
{27, 58},
{27, 59},
{27, 60},
{28, 32},
{28, 36},
{28, 39},
{28, 41},
{28, 44},
{28, 46},
{28, 51},
{28, 54},
{28, 55},
{28, 56},
{28, 57},
{28, 58},
{29, 34},
{29, 35},
{29, 37},
{29, 38},
{29, 39},
{29, 40},
{29, 41},
{29, 46},
{29, 47},
{29, 50},
{29, 53},
{29, 54},
{29, 55},
{29, 58},
{29, 59},
{30, 33},
{30, 34},
{30, 35},
{30, 36},
{30, 38},
{30, 40},
{30, 43},
{30, 45},
{30, 47},
{30, 50},
{30, 51},
{30, 54},
{30, 55},
{30, 56},
{30, 57},
{30, 59},
{30, 60},
{31, 32},
{31, 33},
{31, 35},
{31, 36},
{31, 38},
{31, 39},
{31, 43},
{31, 45},
{31, 48},
{31, 49},
{31, 50},
{31, 51},
{31, 52},
{31, 53},
{31, 54},
{31, 56},
{31, 57},
{32, 33},
{32, 34},
{32, 35},
{32, 37},
{32, 40},
{32, 45},
{32, 46},
{32, 50},
{32, 51},
{32, 53},
{32, 54},
{32, 57},
{32, 59},
{33, 34},
{33, 36},
{33, 39},
{33, 42},
{33, 43},
{33, 44},
{33, 48},
{33, 50},
{33, 51},
{33, 54},
{33, 58},
{33, 59},
{33, 60},
{34, 38},
{34, 42},
{34, 44},
{34, 46},
{34, 50},
{34, 51},
{34, 52},
{34, 54},
{34, 56},
{34, 58},
{34, 59},
{34, 60},
{35, 36},
{35, 38},
{35, 41},
{35, 44},
{35, 45},
{35, 50},
{35, 54},
{35, 55},
{35, 59},
{35, 60},
{36, 37},
{36, 40},
{36, 42},
{36, 43},
{36, 44},
{36, 46},
{36, 47},
{36, 52},
{36, 55},
{36, 56},
{36, 59},
{36, 60},
{37, 39},
{37, 45},
{37, 47},
{37, 50},
{37, 51},
{37, 53},
{37, 55},
{37, 59},
{38, 39},
{38, 40},
{38, 41},
{38, 43},
{38, 44},
{38, 45},
{38, 46},
{38, 51},
{38, 52},
{38, 53},
{38, 54},
{38, 56},
{38, 57},
{38, 58},
{38, 59},
{38, 60},
{39, 42},
{39, 43},
{39, 44},
{39, 47},
{39, 48},
{39, 53},
{39, 54},
{39, 56},
{39, 58},
{39, 59},
{39, 60},
{40, 44},
{40, 45},
{40, 47},
{40, 48},
{40, 51},
{40, 53},
{40, 55},
{40, 56},
{40, 57},
{40, 58},
{41, 42},
{41, 46},
{41, 48},
{41, 50},
{41, 53},
{41, 54},
{41, 56},
{41, 57},
{41, 60},
{42, 43},
{42, 44},
{42, 45},
{42, 49},
{42, 50},
{42, 52},
{42, 54},
{42, 56},
{42, 57},
{42, 58},
{43, 44},
{43, 47},
{43, 49},
{43, 53},
{43, 54},
{43, 55},
{43, 56},
{44, 46},
{44, 49},
{44, 52},
{44, 54},
{44, 55},
{44, 57},
{44, 58},
{45, 47},
{45, 50},
{45, 52},
{45, 53},
{45, 54},
{45, 56},
{45, 57},
{45, 58},
{45, 59},
{45, 60},
{46, 49},
{46, 50},
{46, 53},
{46, 55},
{46, 56},
{46, 57},
{46, 58},
{47, 48},
{47, 49},
{47, 50},
{47, 52},
{47, 53},
{47, 55},
{47, 57},
{47, 60},
{48, 49},
{48, 53},
{48, 56},
{48, 57},
{48, 58},
{49, 52},
{49, 57},
{49, 59},
{49, 60},
{50, 51},
{50, 53},
{50, 54},
{51, 52},
{51, 53},
{51, 54},
{51, 56},
{51, 59},
{52, 53},
{52, 54},
{52, 57},
{53, 54},
{53, 55},
{53, 56},
{53, 57},
{53, 60},
{54, 56},
{55, 58},
{56, 59},
{56, 60},
{57, 58},
{57, 60},
{58, 59},
{58, 60}}
