problems/csplib-prob056/sonet-models/noch/O2/minion/sonet-60-30-30-2281.eprime-param
language ESSENCE' 1.0

letting nnodes be 60
letting nrings be 30
letting capacity be 30
letting demand_ExplicitR3_Explicit be
        [[1, 2; int(1..2)], [1, 3; int(1..2)], [1, 5; int(1..2)], [1, 6; int(1..2)], [1, 9; int(1..2)],
         [1, 10; int(1..2)], [1, 12; int(1..2)], [1, 15; int(1..2)], [1, 17; int(1..2)], [1, 20; int(1..2)],
         [1, 21; int(1..2)], [1, 23; int(1..2)], [1, 26; int(1..2)], [1, 27; int(1..2)], [1, 29; int(1..2)],
         [1, 30; int(1..2)], [1, 32; int(1..2)], [1, 34; int(1..2)], [1, 36; int(1..2)], [1, 37; int(1..2)],
         [1, 38; int(1..2)], [1, 39; int(1..2)], [1, 41; int(1..2)], [1, 42; int(1..2)], [1, 43; int(1..2)],
         [1, 44; int(1..2)], [1, 45; int(1..2)], [1, 46; int(1..2)], [1, 47; int(1..2)], [1, 48; int(1..2)],
         [1, 49; int(1..2)], [1, 50; int(1..2)], [1, 53; int(1..2)], [1, 54; int(1..2)], [1, 55; int(1..2)],
         [1, 56; int(1..2)], [1, 57; int(1..2)], [1, 59; int(1..2)], [1, 60; int(1..2)], [2, 3; int(1..2)],
         [2, 4; int(1..2)], [2, 5; int(1..2)], [2, 7; int(1..2)], [2, 9; int(1..2)], [2, 13; int(1..2)],
         [2, 15; int(1..2)], [2, 17; int(1..2)], [2, 18; int(1..2)], [2, 20; int(1..2)], [2, 22; int(1..2)],
         [2, 23; int(1..2)], [2, 26; int(1..2)], [2, 27; int(1..2)], [2, 32; int(1..2)], [2, 33; int(1..2)],
         [2, 34; int(1..2)], [2, 35; int(1..2)], [2, 36; int(1..2)], [2, 39; int(1..2)], [2, 40; int(1..2)],
         [2, 41; int(1..2)], [2, 42; int(1..2)], [2, 44; int(1..2)], [2, 46; int(1..2)], [2, 47; int(1..2)],
         [2, 48; int(1..2)], [2, 50; int(1..2)], [2, 51; int(1..2)], [2, 52; int(1..2)], [2, 58; int(1..2)],
         [3, 4; int(1..2)], [3, 8; int(1..2)], [3, 9; int(1..2)], [3, 10; int(1..2)], [3, 11; int(1..2)],
         [3, 12; int(1..2)], [3, 13; int(1..2)], [3, 14; int(1..2)], [3, 15; int(1..2)], [3, 16; int(1..2)],
         [3, 17; int(1..2)], [3, 20; int(1..2)], [3, 22; int(1..2)], [3, 23; int(1..2)], [3, 24; int(1..2)],
         [3, 25; int(1..2)], [3, 26; int(1..2)], [3, 27; int(1..2)], [3, 30; int(1..2)], [3, 32; int(1..2)],
         [3, 37; int(1..2)], [3, 38; int(1..2)], [3, 46; int(1..2)], [3, 53; int(1..2)], [3, 55; int(1..2)],
         [3, 56; int(1..2)], [3, 57; int(1..2)], [3, 58; int(1..2)], [3, 59; int(1..2)], [4, 7; int(1..2)],
         [4, 9; int(1..2)], [4, 15; int(1..2)], [4, 17; int(1..2)], [4, 18; int(1..2)], [4, 20; int(1..2)],
         [4, 23; int(1..2)], [4, 24; int(1..2)], [4, 25; int(1..2)], [4, 27; int(1..2)], [4, 28; int(1..2)],
         [4, 29; int(1..2)], [4, 30; int(1..2)], [4, 31; int(1..2)], [4, 32; int(1..2)], [4, 33; int(1..2)],
         [4, 34; int(1..2)], [4, 35; int(1..2)], [4, 36; int(1..2)], [4, 40; int(1..2)], [4, 41; int(1..2)],
         [4, 42; int(1..2)], [4, 46; int(1..2)], [4, 47; int(1..2)], [4, 48; int(1..2)], [4, 49; int(1..2)],
         [4, 53; int(1..2)], [4, 54; int(1..2)], [4, 55; int(1..2)], [4, 56; int(1..2)], [4, 60; int(1..2)],
         [5, 6; int(1..2)], [5, 7; int(1..2)], [5, 8; int(1..2)], [5, 9; int(1..2)], [5, 10; int(1..2)],
         [5, 11; int(1..2)], [5, 12; int(1..2)], [5, 14; int(1..2)], [5, 17; int(1..2)], [5, 18; int(1..2)],
         [5, 19; int(1..2)], [5, 23; int(1..2)], [5, 25; int(1..2)], [5, 27; int(1..2)], [5, 30; int(1..2)],
         [5, 32; int(1..2)], [5, 41; int(1..2)], [5, 42; int(1..2)], [5, 43; int(1..2)], [5, 45; int(1..2)],
         [5, 46; int(1..2)], [5, 51; int(1..2)], [5, 52; int(1..2)], [5, 54; int(1..2)], [5, 55; int(1..2)],
         [5, 56; int(1..2)], [5, 57; int(1..2)], [5, 59; int(1..2)], [5, 60; int(1..2)], [6, 7; int(1..2)],
         [6, 9; int(1..2)], [6, 12; int(1..2)], [6, 13; int(1..2)], [6, 16; int(1..2)], [6, 17; int(1..2)],
         [6, 24; int(1..2)], [6, 26; int(1..2)], [6, 27; int(1..2)], [6, 28; int(1..2)], [6, 29; int(1..2)],
         [6, 30; int(1..2)], [6, 31; int(1..2)], [6, 34; int(1..2)], [6, 35; int(1..2)], [6, 36; int(1..2)],
         [6, 37; int(1..2)], [6, 39; int(1..2)], [6, 42; int(1..2)], [6, 45; int(1..2)], [6, 46; int(1..2)],
         [6, 47; int(1..2)], [6, 48; int(1..2)], [6, 49; int(1..2)], [6, 50; int(1..2)], [6, 52; int(1..2)],
         [6, 54; int(1..2)], [6, 55; int(1..2)], [6, 59; int(1..2)], [7, 9; int(1..2)], [7, 12; int(1..2)],
         [7, 20; int(1..2)], [7, 22; int(1..2)], [7, 23; int(1..2)], [7, 27; int(1..2)], [7, 28; int(1..2)],
         [7, 30; int(1..2)], [7, 31; int(1..2)], [7, 32; int(1..2)], [7, 35; int(1..2)], [7, 39; int(1..2)],
         [7, 46; int(1..2)], [7, 48; int(1..2)], [7, 49; int(1..2)], [7, 51; int(1..2)], [7, 53; int(1..2)],
         [7, 54; int(1..2)], [7, 55; int(1..2)], [7, 58; int(1..2)], [7, 60; int(1..2)], [8, 11; int(1..2)],
         [8, 12; int(1..2)], [8, 13; int(1..2)], [8, 16; int(1..2)], [8, 18; int(1..2)], [8, 23; int(1..2)],
         [8, 27; int(1..2)], [8, 28; int(1..2)], [8, 32; int(1..2)], [8, 34; int(1..2)], [8, 36; int(1..2)],
         [8, 40; int(1..2)], [8, 42; int(1..2)], [8, 43; int(1..2)], [8, 44; int(1..2)], [8, 50; int(1..2)],
         [8, 54; int(1..2)], [8, 56; int(1..2)], [8, 57; int(1..2)], [8, 59; int(1..2)], [9, 11; int(1..2)],
         [9, 13; int(1..2)], [9, 14; int(1..2)], [9, 20; int(1..2)], [9, 24; int(1..2)], [9, 26; int(1..2)],
         [9, 27; int(1..2)], [9, 29; int(1..2)], [9, 31; int(1..2)], [9, 32; int(1..2)], [9, 38; int(1..2)],
         [9, 41; int(1..2)], [9, 42; int(1..2)], [9, 44; int(1..2)], [9, 45; int(1..2)], [9, 47; int(1..2)],
         [9, 52; int(1..2)], [9, 56; int(1..2)], [9, 58; int(1..2)], [9, 59; int(1..2)], [10, 13; int(1..2)],
         [10, 15; int(1..2)], [10, 16; int(1..2)], [10, 19; int(1..2)], [10, 21; int(1..2)], [10, 22; int(1..2)],
         [10, 23; int(1..2)], [10, 27; int(1..2)], [10, 28; int(1..2)], [10, 33; int(1..2)], [10, 37; int(1..2)],
         [10, 38; int(1..2)], [10, 40; int(1..2)], [10, 41; int(1..2)], [10, 46; int(1..2)], [10, 48; int(1..2)],
         [10, 54; int(1..2)], [10, 56; int(1..2)], [10, 59; int(1..2)], [10, 60; int(1..2)], [11, 13; int(1..2)],
         [11, 14; int(1..2)], [11, 15; int(1..2)], [11, 16; int(1..2)], [11, 18; int(1..2)], [11, 20; int(1..2)],
         [11, 21; int(1..2)], [11, 23; int(1..2)], [11, 24; int(1..2)], [11, 27; int(1..2)], [11, 30; int(1..2)],
         [11, 31; int(1..2)], [11, 33; int(1..2)], [11, 35; int(1..2)], [11, 37; int(1..2)], [11, 38; int(1..2)],
         [11, 39; int(1..2)], [11, 41; int(1..2)], [11, 43; int(1..2)], [11, 44; int(1..2)], [11, 45; int(1..2)],
         [11, 51; int(1..2)], [11, 57; int(1..2)], [11, 59; int(1..2)], [11, 60; int(1..2)], [12, 15; int(1..2)],
         [12, 16; int(1..2)], [12, 18; int(1..2)], [12, 19; int(1..2)], [12, 20; int(1..2)], [12, 21; int(1..2)],
         [12, 22; int(1..2)], [12, 23; int(1..2)], [12, 25; int(1..2)], [12, 29; int(1..2)], [12, 30; int(1..2)],
         [12, 31; int(1..2)], [12, 32; int(1..2)], [12, 33; int(1..2)], [12, 37; int(1..2)], [12, 41; int(1..2)],
         [12, 43; int(1..2)], [12, 45; int(1..2)], [12, 46; int(1..2)], [12, 47; int(1..2)], [12, 50; int(1..2)],
         [12, 53; int(1..2)], [12, 56; int(1..2)], [12, 57; int(1..2)], [12, 58; int(1..2)], [12, 59; int(1..2)],
         [12, 60; int(1..2)], [13, 17; int(1..2)], [13, 19; int(1..2)], [13, 22; int(1..2)], [13, 23; int(1..2)],
         [13, 27; int(1..2)], [13, 29; int(1..2)], [13, 32; int(1..2)], [13, 33; int(1..2)], [13, 35; int(1..2)],
         [13, 36; int(1..2)], [13, 39; int(1..2)], [13, 40; int(1..2)], [13, 42; int(1..2)], [13, 43; int(1..2)],
         [13, 44; int(1..2)], [13, 46; int(1..2)], [13, 47; int(1..2)], [13, 50; int(1..2)], [13, 53; int(1..2)],
         [13, 57; int(1..2)], [13, 60; int(1..2)], [14, 16; int(1..2)], [14, 17; int(1..2)], [14, 18; int(1..2)],
         [14, 20; int(1..2)], [14, 22; int(1..2)], [14, 27; int(1..2)], [14, 28; int(1..2)], [14, 32; int(1..2)],
         [14, 33; int(1..2)], [14, 34; int(1..2)], [14, 35; int(1..2)], [14, 36; int(1..2)], [14, 37; int(1..2)],
         [14, 39; int(1..2)], [14, 42; int(1..2)], [14, 43; int(1..2)], [14, 44; int(1..2)], [14, 46; int(1..2)],
         [14, 48; int(1..2)], [14, 50; int(1..2)], [14, 55; int(1..2)], [14, 56; int(1..2)], [14, 57; int(1..2)],
         [15, 16; int(1..2)], [15, 19; int(1..2)], [15, 20; int(1..2)], [15, 21; int(1..2)], [15, 22; int(1..2)],
         [15, 23; int(1..2)], [15, 25; int(1..2)], [15, 26; int(1..2)], [15, 27; int(1..2)], [15, 28; int(1..2)],
         [15, 29; int(1..2)], [15, 33; int(1..2)], [15, 34; int(1..2)], [15, 35; int(1..2)], [15, 36; int(1..2)],
         [15, 39; int(1..2)], [15, 40; int(1..2)], [15, 41; int(1..2)], [15, 44; int(1..2)], [15, 46; int(1..2)],
         [15, 49; int(1..2)], [15, 50; int(1..2)], [15, 52; int(1..2)], [15, 53; int(1..2)], [15, 54; int(1..2)],
         [15, 55; int(1..2)], [15, 60; int(1..2)], [16, 17; int(1..2)], [16, 18; int(1..2)], [16, 19; int(1..2)],
         [16, 21; int(1..2)], [16, 23; int(1..2)], [16, 24; int(1..2)], [16, 25; int(1..2)], [16, 26; int(1..2)],
         [16, 30; int(1..2)], [16, 31; int(1..2)], [16, 32; int(1..2)], [16, 33; int(1..2)], [16, 37; int(1..2)],
         [16, 38; int(1..2)], [16, 39; int(1..2)], [16, 40; int(1..2)], [16, 41; int(1..2)], [16, 42; int(1..2)],
         [16, 44; int(1..2)], [16, 45; int(1..2)], [16, 46; int(1..2)], [16, 49; int(1..2)], [16, 51; int(1..2)],
         [16, 53; int(1..2)], [16, 55; int(1..2)], [16, 56; int(1..2)], [16, 57; int(1..2)], [16, 58; int(1..2)],
         [16, 59; int(1..2)], [17, 22; int(1..2)], [17, 23; int(1..2)], [17, 24; int(1..2)], [17, 25; int(1..2)],
         [17, 26; int(1..2)], [17, 27; int(1..2)], [17, 28; int(1..2)], [17, 30; int(1..2)], [17, 31; int(1..2)],
         [17, 32; int(1..2)], [17, 33; int(1..2)], [17, 37; int(1..2)], [17, 38; int(1..2)], [17, 40; int(1..2)],
         [17, 41; int(1..2)], [17, 43; int(1..2)], [17, 44; int(1..2)], [17, 45; int(1..2)], [17, 49; int(1..2)],
         [17, 55; int(1..2)], [17, 56; int(1..2)], [17, 57; int(1..2)], [17, 59; int(1..2)], [17, 60; int(1..2)],
         [18, 21; int(1..2)], [18, 22; int(1..2)], [18, 27; int(1..2)], [18, 29; int(1..2)], [18, 30; int(1..2)],
         [18, 34; int(1..2)], [18, 36; int(1..2)], [18, 37; int(1..2)], [18, 38; int(1..2)], [18, 40; int(1..2)],
         [18, 43; int(1..2)], [18, 44; int(1..2)], [18, 45; int(1..2)], [18, 48; int(1..2)], [18, 49; int(1..2)],
         [18, 54; int(1..2)], [18, 56; int(1..2)], [18, 58; int(1..2)], [18, 59; int(1..2)], [18, 60; int(1..2)],
         [19, 21; int(1..2)], [19, 22; int(1..2)], [19, 23; int(1..2)], [19, 24; int(1..2)], [19, 25; int(1..2)],
         [19, 26; int(1..2)], [19, 28; int(1..2)], [19, 29; int(1..2)], [19, 32; int(1..2)], [19, 35; int(1..2)],
         [19, 36; int(1..2)], [19, 42; int(1..2)], [19, 44; int(1..2)], [19, 45; int(1..2)], [19, 47; int(1..2)],
         [19, 49; int(1..2)], [19, 53; int(1..2)], [19, 54; int(1..2)], [19, 55; int(1..2)], [19, 59; int(1..2)],
         [20, 21; int(1..2)], [20, 24; int(1..2)], [20, 26; int(1..2)], [20, 27; int(1..2)], [20, 31; int(1..2)],
         [20, 32; int(1..2)], [20, 38; int(1..2)], [20, 39; int(1..2)], [20, 42; int(1..2)], [20, 44; int(1..2)],
         [20, 45; int(1..2)], [20, 47; int(1..2)], [20, 48; int(1..2)], [20, 56; int(1..2)], [20, 57; int(1..2)],
         [20, 58; int(1..2)], [20, 59; int(1..2)], [20, 60; int(1..2)], [21, 24; int(1..2)], [21, 28; int(1..2)],
         [21, 31; int(1..2)], [21, 35; int(1..2)], [21, 36; int(1..2)], [21, 38; int(1..2)], [21, 39; int(1..2)],
         [21, 45; int(1..2)], [21, 46; int(1..2)], [21, 47; int(1..2)], [21, 50; int(1..2)], [21, 54; int(1..2)],
         [21, 56; int(1..2)], [22, 23; int(1..2)], [22, 24; int(1..2)], [22, 25; int(1..2)], [22, 26; int(1..2)],
         [22, 27; int(1..2)], [22, 29; int(1..2)], [22, 30; int(1..2)], [22, 32; int(1..2)], [22, 33; int(1..2)],
         [22, 35; int(1..2)], [22, 36; int(1..2)], [22, 37; int(1..2)], [22, 38; int(1..2)], [22, 39; int(1..2)],
         [22, 40; int(1..2)], [22, 41; int(1..2)], [22, 43; int(1..2)], [22, 44; int(1..2)], [22, 45; int(1..2)],
         [22, 46; int(1..2)], [22, 47; int(1..2)], [22, 50; int(1..2)], [22, 52; int(1..2)], [22, 57; int(1..2)],
         [22, 58; int(1..2)], [22, 59; int(1..2)], [23, 24; int(1..2)], [23, 28; int(1..2)], [23, 29; int(1..2)],
         [23, 31; int(1..2)], [23, 32; int(1..2)], [23, 35; int(1..2)], [23, 38; int(1..2)], [23, 39; int(1..2)],
         [23, 40; int(1..2)], [23, 41; int(1..2)], [23, 42; int(1..2)], [23, 45; int(1..2)], [23, 46; int(1..2)],
         [23, 50; int(1..2)], [23, 53; int(1..2)], [23, 58; int(1..2)], [23, 59; int(1..2)], [24, 25; int(1..2)],
         [24, 30; int(1..2)], [24, 31; int(1..2)], [24, 34; int(1..2)], [24, 35; int(1..2)], [24, 36; int(1..2)],
         [24, 37; int(1..2)], [24, 38; int(1..2)], [24, 42; int(1..2)], [24, 44; int(1..2)], [24, 46; int(1..2)],
         [24, 47; int(1..2)], [24, 48; int(1..2)], [24, 49; int(1..2)], [24, 51; int(1..2)], [24, 52; int(1..2)],
         [25, 27; int(1..2)], [25, 29; int(1..2)], [25, 32; int(1..2)], [25, 33; int(1..2)], [25, 35; int(1..2)],
         [25, 38; int(1..2)], [25, 41; int(1..2)], [25, 42; int(1..2)], [25, 44; int(1..2)], [25, 46; int(1..2)],
         [25, 49; int(1..2)], [25, 52; int(1..2)], [25, 53; int(1..2)], [25, 57; int(1..2)], [25, 58; int(1..2)],
         [26, 30; int(1..2)], [26, 36; int(1..2)], [26, 41; int(1..2)], [26, 42; int(1..2)], [26, 43; int(1..2)],
         [26, 44; int(1..2)], [26, 45; int(1..2)], [26, 46; int(1..2)], [26, 47; int(1..2)], [26, 48; int(1..2)],
         [26, 56; int(1..2)], [26, 57; int(1..2)], [26, 59; int(1..2)], [26, 60; int(1..2)], [27, 28; int(1..2)],
         [27, 30; int(1..2)], [27, 32; int(1..2)], [27, 34; int(1..2)], [27, 38; int(1..2)], [27, 39; int(1..2)],
         [27, 40; int(1..2)], [27, 41; int(1..2)], [27, 45; int(1..2)], [27, 46; int(1..2)], [27, 47; int(1..2)],
         [27, 48; int(1..2)], [27, 49; int(1..2)], [27, 50; int(1..2)], [27, 52; int(1..2)], [27, 53; int(1..2)],
         [27, 54; int(1..2)], [27, 55; int(1..2)], [27, 57; int(1..2)], [27, 58; int(1..2)], [27, 59; int(1..2)],
         [27, 60; int(1..2)], [28, 32; int(1..2)], [28, 36; int(1..2)], [28, 39; int(1..2)], [28, 41; int(1..2)],
         [28, 44; int(1..2)], [28, 46; int(1..2)], [28, 51; int(1..2)], [28, 54; int(1..2)], [28, 55; int(1..2)],
         [28, 56; int(1..2)], [28, 57; int(1..2)], [28, 58; int(1..2)], [29, 34; int(1..2)], [29, 35; int(1..2)],
         [29, 37; int(1..2)], [29, 38; int(1..2)], [29, 39; int(1..2)], [29, 40; int(1..2)], [29, 41; int(1..2)],
         [29, 46; int(1..2)], [29, 47; int(1..2)], [29, 50; int(1..2)], [29, 53; int(1..2)], [29, 54; int(1..2)],
         [29, 55; int(1..2)], [29, 58; int(1..2)], [29, 59; int(1..2)], [30, 33; int(1..2)], [30, 34; int(1..2)],
         [30, 35; int(1..2)], [30, 36; int(1..2)], [30, 38; int(1..2)], [30, 40; int(1..2)], [30, 43; int(1..2)],
         [30, 45; int(1..2)], [30, 47; int(1..2)], [30, 50; int(1..2)], [30, 51; int(1..2)], [30, 54; int(1..2)],
         [30, 55; int(1..2)], [30, 56; int(1..2)], [30, 57; int(1..2)], [30, 59; int(1..2)], [30, 60; int(1..2)],
         [31, 32; int(1..2)], [31, 33; int(1..2)], [31, 35; int(1..2)], [31, 36; int(1..2)], [31, 38; int(1..2)],
         [31, 39; int(1..2)], [31, 43; int(1..2)], [31, 45; int(1..2)], [31, 48; int(1..2)], [31, 49; int(1..2)],
         [31, 50; int(1..2)], [31, 51; int(1..2)], [31, 52; int(1..2)], [31, 53; int(1..2)], [31, 54; int(1..2)],
         [31, 56; int(1..2)], [31, 57; int(1..2)], [32, 33; int(1..2)], [32, 34; int(1..2)], [32, 35; int(1..2)],
         [32, 37; int(1..2)], [32, 40; int(1..2)], [32, 45; int(1..2)], [32, 46; int(1..2)], [32, 50; int(1..2)],
         [32, 51; int(1..2)], [32, 53; int(1..2)], [32, 54; int(1..2)], [32, 57; int(1..2)], [32, 59; int(1..2)],
         [33, 34; int(1..2)], [33, 36; int(1..2)], [33, 39; int(1..2)], [33, 42; int(1..2)], [33, 43; int(1..2)],
         [33, 44; int(1..2)], [33, 48; int(1..2)], [33, 50; int(1..2)], [33, 51; int(1..2)], [33, 54; int(1..2)],
         [33, 58; int(1..2)], [33, 59; int(1..2)], [33, 60; int(1..2)], [34, 38; int(1..2)], [34, 42; int(1..2)],
         [34, 44; int(1..2)], [34, 46; int(1..2)], [34, 50; int(1..2)], [34, 51; int(1..2)], [34, 52; int(1..2)],
         [34, 54; int(1..2)], [34, 56; int(1..2)], [34, 58; int(1..2)], [34, 59; int(1..2)], [34, 60; int(1..2)],
         [35, 36; int(1..2)], [35, 38; int(1..2)], [35, 41; int(1..2)], [35, 44; int(1..2)], [35, 45; int(1..2)],
         [35, 50; int(1..2)], [35, 54; int(1..2)], [35, 55; int(1..2)], [35, 59; int(1..2)], [35, 60; int(1..2)],
         [36, 37; int(1..2)], [36, 40; int(1..2)], [36, 42; int(1..2)], [36, 43; int(1..2)], [36, 44; int(1..2)],
         [36, 46; int(1..2)], [36, 47; int(1..2)], [36, 52; int(1..2)], [36, 55; int(1..2)], [36, 56; int(1..2)],
         [36, 59; int(1..2)], [36, 60; int(1..2)], [37, 39; int(1..2)], [37, 45; int(1..2)], [37, 47; int(1..2)],
         [37, 50; int(1..2)], [37, 51; int(1..2)], [37, 53; int(1..2)], [37, 55; int(1..2)], [37, 59; int(1..2)],
         [38, 39; int(1..2)], [38, 40; int(1..2)], [38, 41; int(1..2)], [38, 43; int(1..2)], [38, 44; int(1..2)],
         [38, 45; int(1..2)], [38, 46; int(1..2)], [38, 51; int(1..2)], [38, 52; int(1..2)], [38, 53; int(1..2)],
         [38, 54; int(1..2)], [38, 56; int(1..2)], [38, 57; int(1..2)], [38, 58; int(1..2)], [38, 59; int(1..2)],
         [38, 60; int(1..2)], [39, 42; int(1..2)], [39, 43; int(1..2)], [39, 44; int(1..2)], [39, 47; int(1..2)],
         [39, 48; int(1..2)], [39, 53; int(1..2)], [39, 54; int(1..2)], [39, 56; int(1..2)], [39, 58; int(1..2)],
         [39, 59; int(1..2)], [39, 60; int(1..2)], [40, 44; int(1..2)], [40, 45; int(1..2)], [40, 47; int(1..2)],
         [40, 48; int(1..2)], [40, 51; int(1..2)], [40, 53; int(1..2)], [40, 55; int(1..2)], [40, 56; int(1..2)],
         [40, 57; int(1..2)], [40, 58; int(1..2)], [41, 42; int(1..2)], [41, 46; int(1..2)], [41, 48; int(1..2)],
         [41, 50; int(1..2)], [41, 53; int(1..2)], [41, 54; int(1..2)], [41, 56; int(1..2)], [41, 57; int(1..2)],
         [41, 60; int(1..2)], [42, 43; int(1..2)], [42, 44; int(1..2)], [42, 45; int(1..2)], [42, 49; int(1..2)],
         [42, 50; int(1..2)], [42, 52; int(1..2)], [42, 54; int(1..2)], [42, 56; int(1..2)], [42, 57; int(1..2)],
         [42, 58; int(1..2)], [43, 44; int(1..2)], [43, 47; int(1..2)], [43, 49; int(1..2)], [43, 53; int(1..2)],
         [43, 54; int(1..2)], [43, 55; int(1..2)], [43, 56; int(1..2)], [44, 46; int(1..2)], [44, 49; int(1..2)],
         [44, 52; int(1..2)], [44, 54; int(1..2)], [44, 55; int(1..2)], [44, 57; int(1..2)], [44, 58; int(1..2)],
         [45, 47; int(1..2)], [45, 50; int(1..2)], [45, 52; int(1..2)], [45, 53; int(1..2)], [45, 54; int(1..2)],
         [45, 56; int(1..2)], [45, 57; int(1..2)], [45, 58; int(1..2)], [45, 59; int(1..2)], [45, 60; int(1..2)],
         [46, 49; int(1..2)], [46, 50; int(1..2)], [46, 53; int(1..2)], [46, 55; int(1..2)], [46, 56; int(1..2)],
         [46, 57; int(1..2)], [46, 58; int(1..2)], [47, 48; int(1..2)], [47, 49; int(1..2)], [47, 50; int(1..2)],
         [47, 52; int(1..2)], [47, 53; int(1..2)], [47, 55; int(1..2)], [47, 57; int(1..2)], [47, 60; int(1..2)],
         [48, 49; int(1..2)], [48, 53; int(1..2)], [48, 56; int(1..2)], [48, 57; int(1..2)], [48, 58; int(1..2)],
         [49, 52; int(1..2)], [49, 57; int(1..2)], [49, 59; int(1..2)], [49, 60; int(1..2)], [50, 51; int(1..2)],
         [50, 53; int(1..2)], [50, 54; int(1..2)], [51, 52; int(1..2)], [51, 53; int(1..2)], [51, 54; int(1..2)],
         [51, 56; int(1..2)], [51, 59; int(1..2)], [52, 53; int(1..2)], [52, 54; int(1..2)], [52, 57; int(1..2)],
         [53, 54; int(1..2)], [53, 55; int(1..2)], [53, 56; int(1..2)], [53, 57; int(1..2)], [53, 60; int(1..2)],
         [54, 56; int(1..2)], [55, 58; int(1..2)], [56, 59; int(1..2)], [56, 60; int(1..2)], [57, 58; int(1..2)],
         [57, 60; int(1..2)], [58, 59; int(1..2)], [58, 60; int(1..2)];
             int(1..883)]
$ Visualisation for demand_ExplicitR3_Explicit
$  1  2
$  1  3
$  1  5
$  1  6
$  1  9
$  1 10
$  1 12
$  1 15
$  1 17
$  1 20
$  1 21
$  1 23
$  1 26
$  1 27
$  1 29
$  1 30
$  1 32
$  1 34
$  1 36
$  1 37
$  1 38
$  1 39
$  1 41
$  1 42
$  1 43
$  1 44
$  1 45
$  1 46
$  1 47
$  1 48
$  1 49
$  1 50
$  1 53
$  1 54
$  1 55
$  1 56
$  1 57
$  1 59
$  1 60
$  2  3
$  2  4
$  2  5
$  2  7
$  2  9
$  2 13
$  2 15
$  2 17
$  2 18
$  2 20
$  2 22
$  2 23
$  2 26
$  2 27
$  2 32
$  2 33
$  2 34
$  2 35
$  2 36
$  2 39
$  2 40
$  2 41
$  2 42
$  2 44
$  2 46
$  2 47
$  2 48
$  2 50
$  2 51
$  2 52
$  2 58
$  3  4
$  3  8
$  3  9
$  3 10
$  3 11
$  3 12
$  3 13
$  3 14
$  3 15
$  3 16
$  3 17
$  3 20
$  3 22
$  3 23
$  3 24
$  3 25
$  3 26
$  3 27
$  3 30
$  3 32
$  3 37
$  3 38
$  3 46
$  3 53
$  3 55
$  3 56
$  3 57
$  3 58
$  3 59
$  4  7
$  4  9
$  4 15
$  4 17
$  4 18
$  4 20
$  4 23
$  4 24
$  4 25
$  4 27
$  4 28
$  4 29
$  4 30
$  4 31
$  4 32
$  4 33
$  4 34
$  4 35
$  4 36
$  4 40
$  4 41
$  4 42
$  4 46
$  4 47
$  4 48
$  4 49
$  4 53
$  4 54
$  4 55
$  4 56
$  4 60
$  5  6
$  5  7
$  5  8
$  5  9
$  5 10
$  5 11
$  5 12
$  5 14
$  5 17
$  5 18
$  5 19
$  5 23
$  5 25
$  5 27
$  5 30
$  5 32
$  5 41
$  5 42
$  5 43
$  5 45
$  5 46
$  5 51
$  5 52
$  5 54
$  5 55
$  5 56
$  5 57
$  5 59
$  5 60
$  6  7
$  6  9
$  6 12
$  6 13
$  6 16
$  6 17
$  6 24
$  6 26
$  6 27
$  6 28
$  6 29
$  6 30
$  6 31
$  6 34
$  6 35
$  6 36
$  6 37
$  6 39
$  6 42
$  6 45
$  6 46
$  6 47
$  6 48
$  6 49
$  6 50
$  6 52
$  6 54
$  6 55
$  6 59
$  7  9
$  7 12
$  7 20
$  7 22
$  7 23
$  7 27
$  7 28
$  7 30
$  7 31
$  7 32
$  7 35
$  7 39
$  7 46
$  7 48
$  7 49
$  7 51
$  7 53
$  7 54
$  7 55
$  7 58
$  7 60
$  8 11
$  8 12
$  8 13
$  8 16
$  8 18
$  8 23
$  8 27
$  8 28
$  8 32
$  8 34
$  8 36
$  8 40
$  8 42
$  8 43
$  8 44
$  8 50
$  8 54
$  8 56
$  8 57
$  8 59
$  9 11
$  9 13
$  9 14
$  9 20
$  9 24
$  9 26
$  9 27
$  9 29
$  9 31
$  9 32
$  9 38
$  9 41
$  9 42
$  9 44
$  9 45
$  9 47
$  9 52
$  9 56
$  9 58
$  9 59
$ 10 13
$ 10 15
$ 10 16
$ 10 19
$ 10 21
$ 10 22
$ 10 23
$ 10 27
$ 10 28
$ 10 33
$ 10 37
$ 10 38
$ 10 40
$ 10 41
$ 10 46
$ 10 48
$ 10 54
$ 10 56
$ 10 59
$ 10 60
$ 11 13
$ 11 14
$ 11 15
$ 11 16
$ 11 18
$ 11 20
$ 11 21
$ 11 23
$ 11 24
$ 11 27
$ 11 30
$ 11 31
$ 11 33
$ 11 35
$ 11 37
$ 11 38
$ 11 39
$ 11 41
$ 11 43
$ 11 44
$ 11 45
$ 11 51
$ 11 57
$ 11 59
$ 11 60
$ 12 15
$ 12 16
$ 12 18
$ 12 19
$ 12 20
$ 12 21
$ 12 22
$ 12 23
$ 12 25
$ 12 29
$ 12 30
$ 12 31
$ 12 32
$ 12 33
$ 12 37
$ 12 41
$ 12 43
$ 12 45
$ 12 46
$ 12 47
$ 12 50
$ 12 53
$ 12 56
$ 12 57
$ 12 58
$ 12 59
$ 12 60
$ 13 17
$ 13 19
$ 13 22
$ 13 23
$ 13 27
$ 13 29
$ 13 32
$ 13 33
$ 13 35
$ 13 36
$ 13 39
$ 13 40
$ 13 42
$ 13 43
$ 13 44
$ 13 46
$ 13 47
$ 13 50
$ 13 53
$ 13 57
$ 13 60
$ 14 16
$ 14 17
$ 14 18
$ 14 20
$ 14 22
$ 14 27
$ 14 28
$ 14 32
$ 14 33
$ 14 34
$ 14 35
$ 14 36
$ 14 37
$ 14 39
$ 14 42
$ 14 43
$ 14 44
$ 14 46
$ 14 48
$ 14 50
$ 14 55
$ 14 56
$ 14 57
$ 15 16
$ 15 19
$ 15 20
$ 15 21
$ 15 22
$ 15 23
$ 15 25
$ 15 26
$ 15 27
$ 15 28
$ 15 29
$ 15 33
$ 15 34
$ 15 35
$ 15 36
$ 15 39
$ 15 40
$ 15 41
$ 15 44
$ 15 46
$ 15 49
$ 15 50
$ 15 52
$ 15 53
$ 15 54
$ 15 55
$ 15 60
$ 16 17
$ 16 18
$ 16 19
$ 16 21
$ 16 23
$ 16 24
$ 16 25
$ 16 26
$ 16 30
$ 16 31
$ 16 32
$ 16 33
$ 16 37
$ 16 38
$ 16 39
$ 16 40
$ 16 41
$ 16 42
$ 16 44
$ 16 45
$ 16 46
$ 16 49
$ 16 51
$ 16 53
$ 16 55
$ 16 56
$ 16 57
$ 16 58
$ 16 59
$ 17 22
$ 17 23
$ 17 24
$ 17 25
$ 17 26
$ 17 27
$ 17 28
$ 17 30
$ 17 31
$ 17 32
$ 17 33
$ 17 37
$ 17 38
$ 17 40
$ 17 41
$ 17 43
$ 17 44
$ 17 45
$ 17 49
$ 17 55
$ 17 56
$ 17 57
$ 17 59
$ 17 60
$ 18 21
$ 18 22
$ 18 27
$ 18 29
$ 18 30
$ 18 34
$ 18 36
$ 18 37
$ 18 38
$ 18 40
$ 18 43
$ 18 44
$ 18 45
$ 18 48
$ 18 49
$ 18 54
$ 18 56
$ 18 58
$ 18 59
$ 18 60
$ 19 21
$ 19 22
$ 19 23
$ 19 24
$ 19 25
$ 19 26
$ 19 28
$ 19 29
$ 19 32
$ 19 35
$ 19 36
$ 19 42
$ 19 44
$ 19 45
$ 19 47
$ 19 49
$ 19 53
$ 19 54
$ 19 55
$ 19 59
$ 20 21
$ 20 24
$ 20 26
$ 20 27
$ 20 31
$ 20 32
$ 20 38
$ 20 39
$ 20 42
$ 20 44
$ 20 45
$ 20 47
$ 20 48
$ 20 56
$ 20 57
$ 20 58
$ 20 59
$ 20 60
$ 21 24
$ 21 28
$ 21 31
$ 21 35
$ 21 36
$ 21 38
$ 21 39
$ 21 45
$ 21 46
$ 21 47
$ 21 50
$ 21 54
$ 21 56
$ 22 23
$ 22 24
$ 22 25
$ 22 26
$ 22 27
$ 22 29
$ 22 30
$ 22 32
$ 22 33
$ 22 35
$ 22 36
$ 22 37
$ 22 38
$ 22 39
$ 22 40
$ 22 41
$ 22 43
$ 22 44
$ 22 45
$ 22 46
$ 22 47
$ 22 50
$ 22 52
$ 22 57
$ 22 58
$ 22 59
$ 23 24
$ 23 28
$ 23 29
$ 23 31
$ 23 32
$ 23 35
$ 23 38
$ 23 39
$ 23 40
$ 23 41
$ 23 42
$ 23 45
$ 23 46
$ 23 50
$ 23 53
$ 23 58
$ 23 59
$ 24 25
$ 24 30
$ 24 31
$ 24 34
$ 24 35
$ 24 36
$ 24 37
$ 24 38
$ 24 42
$ 24 44
$ 24 46
$ 24 47
$ 24 48
$ 24 49
$ 24 51
$ 24 52
$ 25 27
$ 25 29
$ 25 32
$ 25 33
$ 25 35
$ 25 38
$ 25 41
$ 25 42
$ 25 44
$ 25 46
$ 25 49
$ 25 52
$ 25 53
$ 25 57
$ 25 58
$ 26 30
$ 26 36
$ 26 41
$ 26 42
$ 26 43
$ 26 44
$ 26 45
$ 26 46
$ 26 47
$ 26 48
$ 26 56
$ 26 57
$ 26 59
$ 26 60
$ 27 28
$ 27 30
$ 27 32
$ 27 34
$ 27 38
$ 27 39
$ 27 40
$ 27 41
$ 27 45
$ 27 46
$ 27 47
$ 27 48
$ 27 49
$ 27 50
$ 27 52
$ 27 53
$ 27 54
$ 27 55
$ 27 57
$ 27 58
$ 27 59
$ 27 60
$ 28 32
$ 28 36
$ 28 39
$ 28 41
$ 28 44
$ 28 46
$ 28 51
$ 28 54
$ 28 55
$ 28 56
$ 28 57
$ 28 58
$ 29 34
$ 29 35
$ 29 37
$ 29 38
$ 29 39
$ 29 40
$ 29 41
$ 29 46
$ 29 47
$ 29 50
$ 29 53
$ 29 54
$ 29 55
$ 29 58
$ 29 59
$ 30 33
$ 30 34
$ 30 35
$ 30 36
$ 30 38
$ 30 40
$ 30 43
$ 30 45
$ 30 47
$ 30 50
$ 30 51
$ 30 54
$ 30 55
$ 30 56
$ 30 57
$ 30 59
$ 30 60
$ 31 32
$ 31 33
$ 31 35
$ 31 36
$ 31 38
$ 31 39
$ 31 43
$ 31 45
$ 31 48
$ 31 49
$ 31 50
$ 31 51
$ 31 52
$ 31 53
$ 31 54
$ 31 56
$ 31 57
$ 32 33
$ 32 34
$ 32 35
$ 32 37
$ 32 40
$ 32 45
$ 32 46
$ 32 50
$ 32 51
$ 32 53
$ 32 54
$ 32 57
$ 32 59
$ 33 34
$ 33 36
$ 33 39
$ 33 42
$ 33 43
$ 33 44
$ 33 48
$ 33 50
$ 33 51
$ 33 54
$ 33 58
$ 33 59
$ 33 60
$ 34 38
$ 34 42
$ 34 44
$ 34 46
$ 34 50
$ 34 51
$ 34 52
$ 34 54
$ 34 56
$ 34 58
$ 34 59
$ 34 60
$ 35 36
$ 35 38
$ 35 41
$ 35 44
$ 35 45
$ 35 50
$ 35 54
$ 35 55
$ 35 59
$ 35 60
$ 36 37
$ 36 40
$ 36 42
$ 36 43
$ 36 44
$ 36 46
$ 36 47
$ 36 52
$ 36 55
$ 36 56
$ 36 59
$ 36 60
$ 37 39
$ 37 45
$ 37 47
$ 37 50
$ 37 51
$ 37 53
$ 37 55
$ 37 59
$ 38 39
$ 38 40
$ 38 41
$ 38 43
$ 38 44
$ 38 45
$ 38 46
$ 38 51
$ 38 52
$ 38 53
$ 38 54
$ 38 56
$ 38 57
$ 38 58
$ 38 59
$ 38 60
$ 39 42
$ 39 43
$ 39 44
$ 39 47
$ 39 48
$ 39 53
$ 39 54
$ 39 56
$ 39 58
$ 39 59
$ 39 60
$ 40 44
$ 40 45
$ 40 47
$ 40 48
$ 40 51
$ 40 53
$ 40 55
$ 40 56
$ 40 57
$ 40 58
$ 41 42
$ 41 46
$ 41 48
$ 41 50
$ 41 53
$ 41 54
$ 41 56
$ 41 57
$ 41 60
$ 42 43
$ 42 44
$ 42 45
$ 42 49
$ 42 50
$ 42 52
$ 42 54
$ 42 56
$ 42 57
$ 42 58
$ 43 44
$ 43 47
$ 43 49
$ 43 53
$ 43 54
$ 43 55
$ 43 56
$ 44 46
$ 44 49
$ 44 52
$ 44 54
$ 44 55
$ 44 57
$ 44 58
$ 45 47
$ 45 50
$ 45 52
$ 45 53
$ 45 54
$ 45 56
$ 45 57
$ 45 58
$ 45 59
$ 45 60
$ 46 49
$ 46 50
$ 46 53
$ 46 55
$ 46 56
$ 46 57
$ 46 58
$ 47 48
$ 47 49
$ 47 50
$ 47 52
$ 47 53
$ 47 55
$ 47 57
$ 47 60
$ 48 49
$ 48 53
$ 48 56
$ 48 57
$ 48 58
$ 49 52
$ 49 57
$ 49 59
$ 49 60
$ 50 51
$ 50 53
$ 50 54
$ 51 52
$ 51 53
$ 51 54
$ 51 56
$ 51 59
$ 52 53
$ 52 54
$ 52 57
$ 53 54
$ 53 55
$ 53 56
$ 53 57
$ 53 60
$ 54 56
$ 55 58
$ 56 59
$ 56 60
$ 57 58
$ 57 60
$ 58 59
$ 58 60

letting fin1 be 883
